Nano 
 1.0000000000000000
    48.0000000000000000    0.0000000000000000    0.0000000000000000
     0.0000000000000000   48.0000000000000000    0.0000000000000000
     0.0000000000000000    0.0000000000000000   48.0000000000000000
 Ni Co Cu Bi La Sn
 54 54 55 55 55 55 
Cartesian
 24.0000000000000000 20.3999999999999986 15.0000000000000000
 25.8000000000000007 22.2000000000000028 15.0000000000000000
 27.6000000000000014 24.0000000000000000 15.0000000000000000
 24.0000000000000000 18.6000000000000014 16.8000000000000007
 25.8000000000000007 20.3999999999999986 16.8000000000000007
 27.6000000000000014 22.2000000000000028 16.8000000000000007
 29.3999999999999986 24.0000000000000000 16.8000000000000007
 24.0000000000000000 16.8000000000000007 18.6000000000000014
 25.8000000000000007 18.6000000000000014 18.6000000000000014
 27.6000000000000014 20.3999999999999986 18.6000000000000014
 29.3999999999999986 22.2000000000000028 18.6000000000000014
 31.1999999999999993 24.0000000000000000 18.6000000000000014
 24.0000000000000000 15.0000000000000000 20.3999999999999986
 25.8000000000000007 16.8000000000000007 20.3999999999999986
 27.6000000000000014 18.6000000000000014 20.3999999999999986
 29.3999999999999986 20.3999999999999986 20.3999999999999986
 31.1999999999999993 22.2000000000000028 20.3999999999999986
 33.0000000000000000 24.0000000000000000 20.3999999999999986
 25.8000000000000007 15.0000000000000000 22.2000000000000028
 27.6000000000000014 16.8000000000000007 22.2000000000000028
 29.3999999999999986 18.6000000000000014 22.2000000000000028
 31.1999999999999993 20.3999999999999986 22.2000000000000028
 33.0000000000000000 22.2000000000000028 22.2000000000000028
 27.6000000000000014 15.0000000000000000 24.0000000000000000
 29.3999999999999986 16.8000000000000007 24.0000000000000000
 31.1999999999999993 18.6000000000000014 24.0000000000000000
 33.0000000000000000 20.3999999999999986 24.0000000000000000
 22.2000000000000028 22.2000000000000028 15.0000000000000000
 24.0000000000000000 24.0000000000000000 15.0000000000000000
 25.8000000000000007 25.8000000000000007 15.0000000000000000
 20.3999999999999986 18.6000000000000014 16.8000000000000007
 22.2000000000000028 20.3999999999999986 16.8000000000000007
 24.0000000000000000 22.2000000000000028 16.8000000000000007
 25.8000000000000007 24.0000000000000000 16.8000000000000007
 27.6000000000000014 25.8000000000000007 16.8000000000000007
 20.3999999999999986 16.8000000000000007 18.6000000000000014
 22.2000000000000028 18.6000000000000014 18.6000000000000014
 24.0000000000000000 20.3999999999999986 18.6000000000000014
 25.8000000000000007 22.2000000000000028 18.6000000000000014
 27.6000000000000014 24.0000000000000000 18.6000000000000014
 29.3999999999999986 25.8000000000000007 18.6000000000000014
 22.2000000000000028 16.8000000000000007 20.3999999999999986
 24.0000000000000000 18.6000000000000014 20.3999999999999986
 25.8000000000000007 20.3999999999999986 20.3999999999999986
 27.6000000000000014 22.2000000000000028 20.3999999999999986
 29.3999999999999986 24.0000000000000000 20.3999999999999986
 31.1999999999999993 25.8000000000000007 20.3999999999999986
 22.2000000000000028 15.0000000000000000 22.2000000000000028
 24.0000000000000000 16.8000000000000007 22.2000000000000028
 25.8000000000000007 18.6000000000000014 22.2000000000000028
 27.6000000000000014 20.3999999999999986 22.2000000000000028
 29.3999999999999986 22.2000000000000028 22.2000000000000028
 31.1999999999999993 24.0000000000000000 22.2000000000000028
 33.0000000000000000 25.8000000000000007 22.2000000000000028
 24.0000000000000000 15.0000000000000000 24.0000000000000000
 25.8000000000000007 16.8000000000000007 24.0000000000000000
 27.6000000000000014 18.6000000000000014 24.0000000000000000
 29.3999999999999986 20.3999999999999986 24.0000000000000000
 31.1999999999999993 22.2000000000000028 24.0000000000000000
 33.0000000000000000 24.0000000000000000 24.0000000000000000
 25.8000000000000007 15.0000000000000000 25.8000000000000007
 27.6000000000000014 16.8000000000000007 25.8000000000000007
 29.3999999999999986 18.6000000000000014 25.8000000000000007
 31.1999999999999993 20.3999999999999986 25.8000000000000007
 33.0000000000000000 22.2000000000000028 25.8000000000000007
 20.3999999999999986 24.0000000000000000 15.0000000000000000
 22.2000000000000028 25.8000000000000007 15.0000000000000000
 24.0000000000000000 27.6000000000000014 15.0000000000000000
 18.6000000000000014 20.3999999999999986 16.8000000000000007
 20.3999999999999986 22.2000000000000028 16.8000000000000007
 22.2000000000000028 24.0000000000000000 16.8000000000000007
 24.0000000000000000 25.8000000000000007 16.8000000000000007
 25.8000000000000007 27.6000000000000014 16.8000000000000007
 18.6000000000000014 18.6000000000000014 18.6000000000000014
 20.3999999999999986 20.3999999999999986 18.6000000000000014
 22.2000000000000028 22.2000000000000028 18.6000000000000014
 24.0000000000000000 24.0000000000000000 18.6000000000000014
 25.8000000000000007 25.8000000000000007 18.6000000000000014
 27.6000000000000014 27.6000000000000014 18.6000000000000014
 18.6000000000000014 16.8000000000000007 20.3999999999999986
 20.3999999999999986 18.6000000000000014 20.3999999999999986
 22.2000000000000028 20.3999999999999986 20.3999999999999986
 24.0000000000000000 22.2000000000000028 20.3999999999999986
 25.8000000000000007 24.0000000000000000 20.3999999999999986
 27.6000000000000014 25.8000000000000007 20.3999999999999986
 29.3999999999999986 27.6000000000000014 20.3999999999999986
 20.3999999999999986 16.8000000000000007 22.2000000000000028
 22.2000000000000028 18.6000000000000014 22.2000000000000028
 24.0000000000000000 20.3999999999999986 22.2000000000000028
 25.8000000000000007 22.2000000000000028 22.2000000000000028
 27.6000000000000014 24.0000000000000000 22.2000000000000028
 29.3999999999999986 25.8000000000000007 22.2000000000000028
 31.1999999999999993 27.6000000000000014 22.2000000000000028
 20.3999999999999986 15.0000000000000000 24.0000000000000000
 22.2000000000000028 16.8000000000000007 24.0000000000000000
 24.0000000000000000 18.6000000000000014 24.0000000000000000
 25.8000000000000007 20.3999999999999986 24.0000000000000000
 27.6000000000000014 22.2000000000000028 24.0000000000000000
 29.3999999999999986 24.0000000000000000 24.0000000000000000
 31.1999999999999993 25.8000000000000007 24.0000000000000000
 33.0000000000000000 27.6000000000000014 24.0000000000000000
 22.2000000000000028 15.0000000000000000 25.8000000000000007
 24.0000000000000000 16.8000000000000007 25.8000000000000007
 25.8000000000000007 18.6000000000000014 25.8000000000000007
 27.6000000000000014 20.3999999999999986 25.8000000000000007
 29.3999999999999986 22.2000000000000028 25.8000000000000007
 31.1999999999999993 24.0000000000000000 25.8000000000000007
 33.0000000000000000 25.8000000000000007 25.8000000000000007
 24.0000000000000000 15.0000000000000000 27.6000000000000014
 25.8000000000000007 16.8000000000000007 27.6000000000000014
 27.6000000000000014 18.6000000000000014 27.6000000000000014
 29.3999999999999986 20.3999999999999986 27.6000000000000014
 31.1999999999999993 22.2000000000000028 27.6000000000000014
 33.0000000000000000 24.0000000000000000 27.6000000000000014
 18.6000000000000014 24.0000000000000000 16.8000000000000007
 20.3999999999999986 25.8000000000000007 16.8000000000000007
 22.2000000000000028 27.6000000000000014 16.8000000000000007
 24.0000000000000000 29.3999999999999986 16.8000000000000007
 16.8000000000000007 20.3999999999999986 18.6000000000000014
 18.6000000000000014 22.2000000000000028 18.6000000000000014
 20.3999999999999986 24.0000000000000000 18.6000000000000014
 22.2000000000000028 25.8000000000000007 18.6000000000000014
 24.0000000000000000 27.6000000000000014 18.6000000000000014
 25.8000000000000007 29.3999999999999986 18.6000000000000014
 16.8000000000000007 18.6000000000000014 20.3999999999999986
 18.6000000000000014 20.3999999999999986 20.3999999999999986
 20.3999999999999986 22.2000000000000028 20.3999999999999986
 22.2000000000000028 24.0000000000000000 20.3999999999999986
 24.0000000000000000 25.8000000000000007 20.3999999999999986
 25.8000000000000007 27.6000000000000014 20.3999999999999986
 27.6000000000000014 29.3999999999999986 20.3999999999999986
 18.6000000000000014 18.6000000000000014 22.2000000000000028
 20.3999999999999986 20.3999999999999986 22.2000000000000028
 22.2000000000000028 22.2000000000000028 22.2000000000000028
 24.0000000000000000 24.0000000000000000 22.2000000000000028
 25.8000000000000007 25.8000000000000007 22.2000000000000028
 27.6000000000000014 27.6000000000000014 22.2000000000000028
 29.3999999999999986 29.3999999999999986 22.2000000000000028
 18.6000000000000014 16.8000000000000007 24.0000000000000000
 20.3999999999999986 18.6000000000000014 24.0000000000000000
 22.2000000000000028 20.3999999999999986 24.0000000000000000
 24.0000000000000000 22.2000000000000028 24.0000000000000000
 25.8000000000000007 24.0000000000000000 24.0000000000000000
 27.6000000000000014 25.8000000000000007 24.0000000000000000
 29.3999999999999986 27.6000000000000014 24.0000000000000000
 31.1999999999999993 29.3999999999999986 24.0000000000000000
 20.3999999999999986 16.8000000000000007 25.8000000000000007
 22.2000000000000028 18.6000000000000014 25.8000000000000007
 24.0000000000000000 20.3999999999999986 25.8000000000000007
 25.8000000000000007 22.2000000000000028 25.8000000000000007
 27.6000000000000014 24.0000000000000000 25.8000000000000007
 29.3999999999999986 25.8000000000000007 25.8000000000000007
 31.1999999999999993 27.6000000000000014 25.8000000000000007
 22.2000000000000028 16.8000000000000007 27.6000000000000014
 24.0000000000000000 18.6000000000000014 27.6000000000000014
 25.8000000000000007 20.3999999999999986 27.6000000000000014
 27.6000000000000014 22.2000000000000028 27.6000000000000014
 29.3999999999999986 24.0000000000000000 27.6000000000000014
 31.1999999999999993 25.8000000000000007 27.6000000000000014
 24.0000000000000000 16.8000000000000007 29.3999999999999986
 25.8000000000000007 18.6000000000000014 29.3999999999999986
 27.6000000000000014 20.3999999999999986 29.3999999999999986
 29.3999999999999986 22.2000000000000028 29.3999999999999986
 31.1999999999999993 24.0000000000000000 29.3999999999999986
 16.8000000000000007 24.0000000000000000 18.6000000000000014
 18.6000000000000014 25.8000000000000007 18.6000000000000014
 20.3999999999999986 27.6000000000000014 18.6000000000000014
 22.2000000000000028 29.3999999999999986 18.6000000000000014
 24.0000000000000000 31.1999999999999993 18.6000000000000014
 16.8000000000000007 22.2000000000000028 20.3999999999999986
 18.6000000000000014 24.0000000000000000 20.3999999999999986
 20.3999999999999986 25.8000000000000007 20.3999999999999986
 22.2000000000000028 27.6000000000000014 20.3999999999999986
 24.0000000000000000 29.3999999999999986 20.3999999999999986
 25.8000000000000007 31.1999999999999993 20.3999999999999986
 16.8000000000000007 20.3999999999999986 22.2000000000000028
 18.6000000000000014 22.2000000000000028 22.2000000000000028
 20.3999999999999986 24.0000000000000000 22.2000000000000028
 22.2000000000000028 25.8000000000000007 22.2000000000000028
 24.0000000000000000 27.6000000000000014 22.2000000000000028
 25.8000000000000007 29.3999999999999986 22.2000000000000028
 27.6000000000000014 31.1999999999999993 22.2000000000000028
 16.8000000000000007 18.6000000000000014 24.0000000000000000
 18.6000000000000014 20.3999999999999986 24.0000000000000000
 20.3999999999999986 22.2000000000000028 24.0000000000000000
 22.2000000000000028 24.0000000000000000 24.0000000000000000
 24.0000000000000000 25.8000000000000007 24.0000000000000000
 25.8000000000000007 27.6000000000000014 24.0000000000000000
 27.6000000000000014 29.3999999999999986 24.0000000000000000
 29.3999999999999986 31.1999999999999993 24.0000000000000000
 18.6000000000000014 18.6000000000000014 25.8000000000000007
 20.3999999999999986 20.3999999999999986 25.8000000000000007
 22.2000000000000028 22.2000000000000028 25.8000000000000007
 24.0000000000000000 24.0000000000000000 25.8000000000000007
 25.8000000000000007 25.8000000000000007 25.8000000000000007
 27.6000000000000014 27.6000000000000014 25.8000000000000007
 29.3999999999999986 29.3999999999999986 25.8000000000000007
 20.3999999999999986 18.6000000000000014 27.6000000000000014
 22.2000000000000028 20.3999999999999986 27.6000000000000014
 24.0000000000000000 22.2000000000000028 27.6000000000000014
 25.8000000000000007 24.0000000000000000 27.6000000000000014
 27.6000000000000014 25.8000000000000007 27.6000000000000014
 29.3999999999999986 27.6000000000000014 27.6000000000000014
 31.1999999999999993 29.3999999999999986 27.6000000000000014
 22.2000000000000028 18.6000000000000014 29.3999999999999986
 24.0000000000000000 20.3999999999999986 29.3999999999999986
 25.8000000000000007 22.2000000000000028 29.3999999999999986
 27.6000000000000014 24.0000000000000000 29.3999999999999986
 29.3999999999999986 25.8000000000000007 29.3999999999999986
 31.1999999999999993 27.6000000000000014 29.3999999999999986
 24.0000000000000000 18.6000000000000014 31.1999999999999993
 25.8000000000000007 20.3999999999999986 31.1999999999999993
 27.6000000000000014 22.2000000000000028 31.1999999999999993
 29.3999999999999986 24.0000000000000000 31.1999999999999993
 15.0000000000000000 24.0000000000000000 20.3999999999999986
 16.8000000000000007 25.8000000000000007 20.3999999999999986
 18.6000000000000014 27.6000000000000014 20.3999999999999986
 20.3999999999999986 29.3999999999999986 20.3999999999999986
 22.2000000000000028 31.1999999999999993 20.3999999999999986
 24.0000000000000000 33.0000000000000000 20.3999999999999986
 15.0000000000000000 22.2000000000000028 22.2000000000000028
 16.8000000000000007 24.0000000000000000 22.2000000000000028
 18.6000000000000014 25.8000000000000007 22.2000000000000028
 20.3999999999999986 27.6000000000000014 22.2000000000000028
 22.2000000000000028 29.3999999999999986 22.2000000000000028
 24.0000000000000000 31.1999999999999993 22.2000000000000028
 25.8000000000000007 33.0000000000000000 22.2000000000000028
 15.0000000000000000 20.3999999999999986 24.0000000000000000
 16.8000000000000007 22.2000000000000028 24.0000000000000000
 18.6000000000000014 24.0000000000000000 24.0000000000000000
 20.3999999999999986 25.8000000000000007 24.0000000000000000
 22.2000000000000028 27.6000000000000014 24.0000000000000000
 24.0000000000000000 29.3999999999999986 24.0000000000000000
 25.8000000000000007 31.1999999999999993 24.0000000000000000
 27.6000000000000014 33.0000000000000000 24.0000000000000000
 16.8000000000000007 20.3999999999999986 25.8000000000000007
 18.6000000000000014 22.2000000000000028 25.8000000000000007
 20.3999999999999986 24.0000000000000000 25.8000000000000007
 22.2000000000000028 25.8000000000000007 25.8000000000000007
 24.0000000000000000 27.6000000000000014 25.8000000000000007
 25.8000000000000007 29.3999999999999986 25.8000000000000007
 27.6000000000000014 31.1999999999999993 25.8000000000000007
 18.6000000000000014 20.3999999999999986 27.6000000000000014
 20.3999999999999986 22.2000000000000028 27.6000000000000014
 22.2000000000000028 24.0000000000000000 27.6000000000000014
 24.0000000000000000 25.8000000000000007 27.6000000000000014
 25.8000000000000007 27.6000000000000014 27.6000000000000014
 27.6000000000000014 29.3999999999999986 27.6000000000000014
 29.3999999999999986 31.1999999999999993 27.6000000000000014
 20.3999999999999986 20.3999999999999986 29.3999999999999986
 22.2000000000000028 22.2000000000000028 29.3999999999999986
 24.0000000000000000 24.0000000000000000 29.3999999999999986
 25.8000000000000007 25.8000000000000007 29.3999999999999986
 27.6000000000000014 27.6000000000000014 29.3999999999999986
 29.3999999999999986 29.3999999999999986 29.3999999999999986
 22.2000000000000028 20.3999999999999986 31.1999999999999993
 24.0000000000000000 22.2000000000000028 31.1999999999999993
 25.8000000000000007 24.0000000000000000 31.1999999999999993
 27.6000000000000014 25.8000000000000007 31.1999999999999993
 29.3999999999999986 27.6000000000000014 31.1999999999999993
 24.0000000000000000 20.3999999999999986 33.0000000000000000
 25.8000000000000007 22.2000000000000028 33.0000000000000000
 27.6000000000000014 24.0000000000000000 33.0000000000000000
 15.0000000000000000 25.8000000000000007 22.2000000000000028
 16.8000000000000007 27.6000000000000014 22.2000000000000028
 18.6000000000000014 29.3999999999999986 22.2000000000000028
 20.3999999999999986 31.1999999999999993 22.2000000000000028
 22.2000000000000028 33.0000000000000000 22.2000000000000028
 15.0000000000000000 24.0000000000000000 24.0000000000000000
 16.8000000000000007 25.8000000000000007 24.0000000000000000
 18.6000000000000014 27.6000000000000014 24.0000000000000000
 20.3999999999999986 29.3999999999999986 24.0000000000000000
 22.2000000000000028 31.1999999999999993 24.0000000000000000
 24.0000000000000000 33.0000000000000000 24.0000000000000000
 15.0000000000000000 22.2000000000000028 25.8000000000000007
 16.8000000000000007 24.0000000000000000 25.8000000000000007
 18.6000000000000014 25.8000000000000007 25.8000000000000007
 20.3999999999999986 27.6000000000000014 25.8000000000000007
 22.2000000000000028 29.3999999999999986 25.8000000000000007
 24.0000000000000000 31.1999999999999993 25.8000000000000007
 25.8000000000000007 33.0000000000000000 25.8000000000000007
 16.8000000000000007 22.2000000000000028 27.6000000000000014
 18.6000000000000014 24.0000000000000000 27.6000000000000014
 20.3999999999999986 25.8000000000000007 27.6000000000000014
 22.2000000000000028 27.6000000000000014 27.6000000000000014
 24.0000000000000000 29.3999999999999986 27.6000000000000014
 25.8000000000000007 31.1999999999999993 27.6000000000000014
 18.6000000000000014 22.2000000000000028 29.3999999999999986
 20.3999999999999986 24.0000000000000000 29.3999999999999986
 22.2000000000000028 25.8000000000000007 29.3999999999999986
 24.0000000000000000 27.6000000000000014 29.3999999999999986
 25.8000000000000007 29.3999999999999986 29.3999999999999986
 27.6000000000000014 31.1999999999999993 29.3999999999999986
 20.3999999999999986 22.2000000000000028 31.1999999999999993
 22.2000000000000028 24.0000000000000000 31.1999999999999993
 24.0000000000000000 25.8000000000000007 31.1999999999999993
 25.8000000000000007 27.6000000000000014 31.1999999999999993
 27.6000000000000014 29.3999999999999986 31.1999999999999993
 22.2000000000000028 22.2000000000000028 33.0000000000000000
 24.0000000000000000 24.0000000000000000 33.0000000000000000
 25.8000000000000007 25.8000000000000007 33.0000000000000000
 15.0000000000000000 27.6000000000000014 24.0000000000000000
 16.8000000000000007 29.3999999999999986 24.0000000000000000
 18.6000000000000014 31.1999999999999993 24.0000000000000000
 20.3999999999999986 33.0000000000000000 24.0000000000000000
 15.0000000000000000 25.8000000000000007 25.8000000000000007
 16.8000000000000007 27.6000000000000014 25.8000000000000007
 18.6000000000000014 29.3999999999999986 25.8000000000000007
 20.3999999999999986 31.1999999999999993 25.8000000000000007
 22.2000000000000028 33.0000000000000000 25.8000000000000007
 15.0000000000000000 24.0000000000000000 27.6000000000000014
 16.8000000000000007 25.8000000000000007 27.6000000000000014
 18.6000000000000014 27.6000000000000014 27.6000000000000014
 20.3999999999999986 29.3999999999999986 27.6000000000000014
 22.2000000000000028 31.1999999999999993 27.6000000000000014
 24.0000000000000000 33.0000000000000000 27.6000000000000014
 16.8000000000000007 24.0000000000000000 29.3999999999999986
 18.6000000000000014 25.8000000000000007 29.3999999999999986
 20.3999999999999986 27.6000000000000014 29.3999999999999986
 22.2000000000000028 29.3999999999999986 29.3999999999999986
 24.0000000000000000 31.1999999999999993 29.3999999999999986
 18.6000000000000014 24.0000000000000000 31.1999999999999993
 20.3999999999999986 25.8000000000000007 31.1999999999999993
 22.2000000000000028 27.6000000000000014 31.1999999999999993
 24.0000000000000000 29.3999999999999986 31.1999999999999993
 20.3999999999999986 24.0000000000000000 33.0000000000000000
 22.2000000000000028 25.8000000000000007 33.0000000000000000
 24.0000000000000000 27.6000000000000014 33.0000000000000000
